9999151515273997515246189961542437996142543799524524379952424618995242519999942451524243799996242451515199915515199999251542425181699815151999242427399725151999152427399981245151999152427399999999999999999999999999998542424242424242515151515151515151515151515151515151515154243711132955949582111686867658211168686495821116868594682111686867682111965867682112865867682111968567682111959594682111959586731119865867311195959492111986586731119856867311468568673114595686731118956859111568658673111895686731118686859111289568673114595595911155959559111559568591112895686731118686859111298568673111895685911155956867311458659591115595865911155958683711169586591114695868371116685959111559586837112595595911149658683711259586591115868568371125958683711286586837112865868371128685683711286865837112868568371119685683711286859294112868682941128956837115595682941128956829411286868371128686829411289568371128686829411286868371128686829411286868371128686829411286868294112895682941128686829411286865837112868682941128686837112895682941128956829411289568371129586837112986583711295868371129865837112986591119856837111156865959583711111128686868658686837112986583711112686859595911195685911115686868591119568673